qbf_easy_train/easy_5517_SAT.qdimacs
p cnf 24 56
a 9 13 0
e 1 2 3 4 5 6 7 8 10 11 12 14 15 16 17 18 19 20 21 22 23 24 0
2 3 0
-2 3 0
4 -1 0
4 -3 0
1 3 -4 0
-6 5 0
-6 -5 0
8 -6 0
8 -7 0
6 7 -8 0
-9 8 0
-9 8 0
-8 9 0
9 6 -10 0
-9 -6 -10 0
9 -6 10 0
-9 6 10 0
11 4 0
11 10 0
-4 -10 -11 0
14 12 0
14 -13 0
-12 13 -14 0
16 -14 0
16 15 0
14 -15 -16 0
-6 -5 -18 0
6 5 -18 0
-6 5 18 0
6 -5 18 0
-19 17 0
-19 18 0
-17 -18 19 0
20 16 0
20 19 0
-16 -19 -20 0
21 -1 0
21 -2 0
1 2 -21 0
22 -21 0
22 -13 0
21 13 -22 0
-20 22 -23 0
20 -22 -23 0
-20 -22 23 0
20 22 23 0
11 23 -24 0
-11 -23 -24 0
11 -23 24 0
-11 23 24 0
-12 -23 -20 21 -19 0
-6 -9 -7 -19 0
-19 -12 -15 0
11 14 23 18 9 0
-19 24 17 -20 0
24 0
