sat_easy_train/easy_5517_SAT.dimacs
p cnf 129 430
4 -1 0
4 3 0
1 -3 -4 0
5 2 0
5 -4 0
-2 4 -5 0
8 -6 0
8 7 0
6 -7 -8 0
9 -5 0
9 8 0
5 -8 -9 0
-7 10 -11 0
7 -10 -11 0
-7 -10 11 0
7 10 11 0
12 1 0
12 11 0
-1 -11 -12 0
-10 12 -13 0
10 -12 -13 0
-10 -12 13 0
10 12 13 0
-14 9 0
-14 -13 0
-9 13 14 0
15 -1 0
15 -14 0
1 14 -15 0
12 -7 -16 0
-12 7 -16 0
12 7 16 0
-12 -7 16 0
19 17 0
19 -18 0
-17 18 -19 0
21 19 0
21 20 0
-19 -20 -21 0
-22 -21 0
-22 11 0
21 -11 22 0
-16 23 0
16 23 0
-24 23 0
-24 16 0
-23 -16 24 0
-22 24 -25 0
22 -24 -25 0
-22 -24 25 0
22 24 25 0
-27 13 0
-27 26 0
-13 -26 27 0
-28 -27 0
-28 -6 0
27 6 28 0
-25 28 -29 0
25 -28 -29 0
-25 -28 29 0
25 28 29 0
30 11 0
30 29 0
-11 -29 -30 0
31 16 0
31 -30 0
-16 30 -31 0
15 31 -32 0
-15 -31 -32 0
15 -31 32 0
-15 31 32 0
34 -33 0
34 20 0
33 -20 -34 0
-37 35 0
-37 36 0
-35 -36 37 0
38 34 0
38 37 0
-34 -37 -38 0
-39 -10 0
-39 38 0
10 -38 39 0
-24 -39 -40 0
24 39 -40 0
-24 39 40 0
24 -39 40 0
-41 -36 0
-41 -4 0
36 4 41 0
-42 -41 0
-42 -4 0
41 4 42 0
43 9 0
43 42 0
-9 -42 -43 0
40 -43 -44 0
-40 43 -44 0
40 43 44 0
-40 -43 44 0
-45 33 0
-45 7 0
-33 -7 45 0
46 35 0
46 13 0
-35 -13 -46 0
47 -45 0
47 46 0
45 -46 -47 0
-48 -2 0
-48 16 0
2 -16 48 0
-48 -19 -49 0
48 19 -49 0
-48 19 49 0
48 -19 49 0
50 -49 0
50 10 0
49 -10 -50 0
11 -1 -51 0
-11 1 -51 0
11 1 51 0
-11 -1 51 0
-50 51 -52 0
50 -51 -52 0
-50 -51 52 0
50 51 52 0
47 52 -53 0
-47 -52 -53 0
47 -52 53 0
-47 52 53 0
54 44 0
54 -53 0
-44 53 -54 0
55 -32 0
55 54 0
32 -54 -55 0
56 -7 0
56 -22 0
7 22 -56 0
-17 -38 -57 0
17 38 -57 0
-17 38 57 0
17 -38 57 0
-57 -37 -58 0
57 37 -58 0
-57 37 58 0
57 -37 58 0
59 19 0
59 -10 0
-19 10 -59 0
58 59 -60 0
-58 -59 -60 0
58 -59 60 0
-58 59 60 0
61 12 0
61 60 0
-12 -60 -61 0
62 -10 0
62 -10 0
10 -62 0
63 19 0
63 -62 0
-19 62 -63 0
-62 35 -64 0
62 -35 -64 0
-62 -35 64 0
62 35 64 0
64 -21 -65 0
-64 21 -65 0
64 21 65 0
-64 -21 65 0
66 63 0
66 65 0
-63 -65 -66 0
61 66 -67 0
-61 -66 -67 0
61 -66 67 0
-61 66 67 0
56 67 -68 0
-56 -67 -68 0
56 -67 68 0
-56 67 68 0
69 -55 0
69 -68 0
55 68 -69 0
18 -70 -71 0
-18 70 -71 0
18 70 71 0
-18 -70 71 0
-73 -72 0
-73 41 0
72 -41 73 0
74 -6 0
74 73 0
6 -73 -74 0
-75 -22 0
-75 74 0
22 -74 75 0
-76 -75 0
-76 18 0
75 -18 76 0
26 73 -77 0
-26 -73 -77 0
26 -73 77 0
-26 73 77 0
78 -27 0
78 77 0
27 -77 -78 0
79 -22 0
79 78 0
22 -78 -79 0
80 2 0
80 79 0
-2 -79 -80 0
-81 -76 0
-81 80 0
76 -80 81 0
71 -81 -82 0
-71 81 -82 0
71 81 82 0
-71 -81 82 0
-83 -12 0
-83 -48 0
12 48 83 0
82 -83 -84 0
-82 83 -84 0
82 83 84 0
-82 -83 84 0
-85 69 0
-85 84 0
-69 -84 85 0
-86 -36 0
-86 21 0
36 -21 86 0
19 86 -87 0
-19 -86 -87 0
19 -86 87 0
-19 86 87 0
-88 62 0
-88 -8 0
-62 8 88 0
-89 -88 0
-89 18 0
88 -18 89 0
-90 -87 0
-90 -89 0
87 89 90 0
91 -36 0
91 -26 0
36 26 -91 0
92 -33 0
92 -26 0
33 26 -92 0
30 92 -93 0
-30 -92 -93 0
30 -92 93 0
-30 92 93 0
-94 -73 0
-94 93 0
73 -93 94 0
95 91 0
95 94 0
-91 -94 -95 0
-4 19 -96 0
4 -19 -96 0
-4 -19 96 0
4 19 96 0
-97 -95 0
-97 -96 0
95 96 97 0
98 1 0
98 -35 0
-1 35 -98 0
-99 20 0
-99 59 0
-20 -59 99 0
100 98 0
100 99 0
-98 -99 -100 0
101 70 0
101 -50 0
-70 50 -101 0
102 100 0
102 -101 0
-100 101 -102 0
103 -11 0
103 -78 0
11 78 -103 0
-104 26 0
-104 7 0
-26 -7 104 0
105 -13 0
105 -10 0
13 10 -105 0
105 -29 -106 0
-105 29 -106 0
105 29 106 0
-105 -29 106 0
-107 -11 0
-107 36 0
11 -36 107 0
33 107 -108 0
-33 -107 -108 0
33 -107 108 0
-33 107 108 0
-109 25 0
-109 -108 0
-25 108 109 0
110 -106 0
110 -109 0
106 109 -110 0
-111 -104 0
-111 110 0
104 -110 111 0
-103 -111 -112 0
103 111 -112 0
-103 111 112 0
103 -111 112 0
102 -112 -113 0
-102 112 -113 0
102 112 113 0
-102 -112 113 0
-97 -113 -114 0
97 113 -114 0
-97 113 114 0
97 -113 114 0
90 -114 -115 0
-90 114 -115 0
90 114 115 0
-90 -114 115 0
116 -85 0
116 -115 0
85 115 -116 0
20 -1 -117 0
-20 1 -117 0
20 1 117 0
-20 -1 117 0
118 -49 0
118 -19 0
49 19 -118 0
119 -117 0
119 -118 0
117 118 -119 0
-120 119 0
-120 11 0
-119 -11 120 0
-120 -121 -122 0
120 121 -122 0
-120 121 122 0
120 -121 122 0
-123 -99 0
-123 51 0
99 -51 123 0
21 58 -124 0
-21 -58 -124 0
21 -58 124 0
-21 58 124 0
-125 123 0
-125 -124 0
-123 124 125 0
126 -122 0
126 -125 0
122 125 -126 0
127 -33 0
127 73 0
33 -73 -127 0
-128 -126 0
-128 127 0
126 -127 128 0
-129 -116 0
-129 -128 0
116 128 129 0
-43 -47 108 0
-60 -95 120 81 -10 0
-2 38 0
32 -108 10 -27 0
65 63 -72 -109 -124 0
110 -112 127 0
-76 114 -102 40 106 47 0
-44 38 -71 3 87 -43 0
-63 -123 -107 -125 -89 0
-60 39 121 13 -109 0
4 43 0
-33 40 93 0
-85 -49 73 61 0
2 -121 -3 -76 0
29 108 65 93 79 0
105 -18 -82 -62 -13 0
66 -60 -38 83 105 0
-51 105 64 -90 -96 0
3 -53 -101 0
-21 -71 -10 0
-53 -34 0
-49 -117 -36 7 0
-35 5 -117 0
-99 116 19 121 54 0
-54 2 12 -49 117 53 0
3 118 -27 0
-32 -49 0
49 -32 0
56 -127 0
55 -90 -69 0
14 -26 0
101 10 -112 0
-51 9 16 -84 60 18 0
27 -128 19 126 0
-29 -129 44 -70 20 124 0
20 106 114 -5 111 0
-56 46 6 0
120 -105 -44 -29 0
-106 19 31 -119 -78 0
109 36 0
-6 15 10 -85 129 0
46 -69 -112 0
74 101 78 87 -124 -129 0
57 -128 -38 109 62 -98 0
-75 18 -55 -47 99 -51 0
51 -108 -49 91 0
-56 -62 -111 0
-1 22 0
102 42 -60 -69 0
41 -34 0
5 125 -81 0
-65 -25 6 -93 -55 37 0
99 -61 -65 0
-39 -44 76 32 27 111 0
-31 77 125 -4 0
-42 49 9 88 44 0
129 0
